letting n =  10
letting blocks =  [[1, 1], [1, 4], [1, 5], [1, 7], [2, 1], [2, 3], [2, 9], [3, 2], [3, 4], [3, 5], [3, 7], [3, 8], [3, 10], [4, 3], [4, 5], [4, 6], [4, 8], [4, 9], [4, 10], [5, 1], [5, 2], [5, 4], [5, 6], [5, 7], [5, 10], [6, 1], [6, 2], [6, 6], [6, 7], [6, 8], [7, 2], [7, 3], [7, 4], [7, 7], [7, 9], [7, 10], [8, 1], [8, 5], [8, 6], [8, 8], [8, 9], [8, 10], [9, 3], [9, 4], [9, 5], [9, 6], [9, 7], [9, 8], [10, 1], [10, 2], [10, 5], [10, 6], [10, 8], [10, 10]]
